4 
5  40 55 
6  10 25 40 55 
7  10 25 40 55 
8  10 25 40 55 
9  10 25 40 57 
10  12 27 42 57 
11  12 27 42 57 
12  12 27 42 57 
13  12 27 42 57 
14  12 27 42 54 
15  09 25 40 55 
16  10 25 40 55 
17  10 25 40 55 
18  10 25 40 55 
19  10 28 42 54 
20  09 24 
21 
